&CONTROL
  calculation  = "relax",
  prefix       = "CeO2",
  pseudo_dir   = "/home/dmitry/qe/qe-6.1/pseudo/",
  outdir       = "/home/dmitry/qe/qe-6.1/tempdir/",
/
&SYSTEM                   
  ibrav     = 2,
  nat       = 3,
  ntyp      = 2,
  ecutwfc   = 80,
    lda_plus_u=.true.  Hubbard_U(1)=4,
/
&ELECTRONS               
  conv_thr    = 1.0d-8,
  mixing_beta = 0.7,
/
&IONS
/
CELL_PARAMETERS angstrom   
10.0  0.0  0.0
 0.0 10.0  0.0
 0.0  0.0 10.0
ATOMIC_SPECIES
Ce  140.116  Ce.pbe-mt_fhi.UPF
O   15.999    O.pbe-mt_fhi.UPF
ATOMIC_POSITIONS
 Ce 0.00   0.00   0.00
 O  0.25   0.25   0.25
 O  0.75   0.75   0.75
K_POINTS {Automatic}
 3 3 3  1 1 1
