&CONTROL
  calculation  = "relax",
  prefix       = "NO",
  pseudo_dir   = "/home/dmitry/qe/qe-6.1/pseudo/",
  outdir       = "/home/dmitry/qe/qe-6.1/tempdir/",
/
&SYSTEM                    
  ibrav     = 0,
  nat       = 2,
  ntyp      = 2,
  ecutwfc   = 80,
/
&ELECTRONS                
  conv_thr    = 1.0d-8,
  mixing_beta = 0.7,
/
&IONS
/
CELL_PARAMETERS angstrom        ?????
10.0  0.0  0.0
 0.0 10.0  0.0
 0.0  0.0 10.0
ATOMIC_SPECIES
N   14.007    N.pbe-mt_fhi.UPF
O   15.999    O.pbe-mt_fhi.UPF
ATOMIC_POSITIONS
 N 0.00   0.00   0.00
 O  0.25   0.25   0.25
K_POINTS {Automatic}
 3 3 3  1 1 1
