&CONTROL
                       title = 'ceo2_110'
                 calculation = 'relax'
                restart_mode = 'from_scratch'
                      outdir = '/home/dmitry/qe/qe-6.1/Examples/PW/exampleXX/SCF2/output/'
                  pseudo_dir = "/home/dmitry/qe/qe-6.1/pseudo/"
                      prefix = 'ceo2_110'
                     disk_io = 'default'
                   verbosity = 'default'
                      tstress = .true.
                     tprnfor = .true.
                  etot_conv_thr=1.0D-9
                   forc_conv_thr=1.0D-4
                   nstep=1000
                  wf_collect=.true.
 /
 &SYSTEM
                       ibrav = 0
                         nat = 72
                        ntyp = 2
                     ecutwfc = 80
                     ecutrho = 640
                       starting_magnetization(1)=0.5
                       starting_magnetization(3)=0.5
                      nspin=2
                      occupations='smearing'
                      degauss=0.001
                      smearing='mv'
                       nbnd=490
 /
 &ELECTRONS
            electron_maxstep = 1000
                    conv_thr = 1.0D-8
                 mixing_mode = 'plain'
                 mixing_beta = 0.7
                 mixing_ndim = 8
             diagonalization = 'david'
 /
&IONS
                ion_dynamics = 'bfgs'
 /


ATOMIC_SPECIES
    O   15.9989995956   O.pbe-nl-rrkjus_psl.1.0.0.UPF
   Ce  140.1199951172  Ce.pbe-spdfn-rrkjus_psl.1.0.0.UPF
ATOMIC_POSITIONS crystal
  O   0.1250000000000000  -0.0000000000000000   0.0000000000000003 0 0 0
  O   0.1250000000000000  -0.0000000000000000   0.1562436466930924 0 0 0
  O   0.1250000000000001   0.0000000000000001   0.3124872933861844
  O   0.3750000000000002   0.2499999999999999   0.2343654700396384 0 0 0
  O   0.3750000000000002   0.2499999999999999   0.0781218233465463 0 0 0
  O   0.3750000000000002   0.2500000000000000   0.3906091167327304
  O   0.3750000000000002   0.0000000000000001   0.0000000000000003 0 0 0
  O   0.3750000000000001  -0.0000000000000002   0.1562436466930924 0 0 0
  O   0.3750000000000003   0.0000000000000001   0.3124872933861844
  O   0.1250000000000001   0.2499999999999999   0.2343654700396383 0 0 0
  O   0.1250000000000001   0.2500000000000001   0.0781218233465462 0 0 0
  O   0.1250000000000001   0.2500000000000000   0.3906091167327304
  O   0.6250000000000002  -0.0000000000000001   0.0000000000000003 0 0 0
  O   0.6250000000000002  -0.0000000000000001   0.1562436466930924 0 0 0
  O   0.6250000000000002   0.0000000000000000   0.3124872933861844
  O   0.8750000000000002   0.2499999999999998   0.2343654700396384 0 0 0
  O   0.8750000000000002   0.2499999999999998   0.0781218233465463 0 0 0
  O   0.8750000000000002   0.2499999999999999   0.3906091167327304
  O   0.8750000000000002  -0.0000000000000001   0.0000000000000003 0 0 0
  O   0.8750000000000001  -0.0000000000000001   0.1562436466930924 0 0 0
  O   0.8750000000000004   0.0000000000000000   0.3124872933861845
  O   0.6250000000000002   0.2499999999999999   0.2343654700396384 0 0 0
  O   0.6250000000000002   0.2500000000000002   0.0781218233465463 0 0 0
  O   0.6250000000000002   0.2500000000000001   0.3906091167327304
  O   0.1250000000000000   0.4999999999999999   0.0000000000000003 0 0 0
  O   0.1250000000000000   0.5000000000000001   0.1562436466930923 0 0 0
  O   0.1250000000000001   0.5000000000000001   0.3124872933861844
  O   0.3750000000000002   0.7500000000000000   0.2343654700396384 0 0 0
  O   0.3750000000000002   0.7499999999999999   0.0781218233465463 0 0 0
  O   0.3750000000000002   0.7500000000000000   0.3906091167327304
  O   0.3750000000000002   0.5000000000000001   0.0000000000000002 0 0 0
  O   0.3750000000000001   0.4999999999999999   0.1562436466930924 0 0 0
  O   0.3750000000000004   0.5000000000000001   0.3124872933861843
  O   0.1250000000000001   0.7500000000000000   0.2343654700396383 0 0 0
  O   0.1250000000000001   0.7500000000000001   0.0781218233465462 0 0 0
  O   0.1250000000000001   0.7500000000000002   0.3906091167327304
  O   0.6250000000000003   0.4999999999999999   0.0000000000000002 0 0 0
  O   0.6250000000000001   0.5000000000000001   0.1562436466930923 0 0 0
  O   0.6250000000000003   0.5000000000000001   0.3124872933861844
  O   0.8750000000000002   0.7500000000000000   0.2343654700396384 0 0 0
  O   0.8750000000000002   0.7499999999999999   0.0781218233465463 0 0 0
  O   0.8750000000000002   0.7500000000000001   0.3906091167327304
  O   0.8750000000000002   0.5000000000000001   0.0000000000000002 0 0 0
  O   0.8750000000000000   0.4999999999999999   0.1562436466930924 0 0 0
  O   0.8750000000000006   0.5000000000000001   0.3124872933861844
  O   0.6250000000000002   0.7500000000000001   0.2343654700396384 0 0 0
  O   0.6250000000000002   0.7500000000000001   0.0781218233465462 0 0 0
  O   0.6250000000000002   0.7500000000000002   0.3906091167327305
 Ce   0.0000000000000000  -0.0000000000000000   0.0781218233465463 0 0 0
 Ce   0.0000000000000000  -0.0000000000000000   0.2343654700396383 0 0 0
 Ce   0.0000000000000001  -0.0000000000000001   0.3906091167327305
 Ce   0.2500000000000002   0.2500000000000000   0.0000000000000002 0 0 0
 Ce   0.2500000000000002   0.2499999999999999   0.3124872933861844
 Ce   0.2500000000000002   0.2500000000000001   0.1562436466930924 0 0 0
 Ce   0.5000000000000001   0.0000000000000000   0.0781218233465463 0 0 0
 Ce   0.5000000000000001   0.0000000000000000   0.2343654700396384 0 0 0
 Ce   0.5000000000000001  -0.0000000000000001   0.3906091167327304
 Ce   0.7500000000000003   0.2500000000000001   0.0000000000000002 0 0 0
 Ce   0.7500000000000003   0.2499999999999999   0.3124872933861844
 Ce   0.7500000000000003   0.2500000000000001   0.1562436466930924 0 0 0
 Ce   0.0000000000000000   0.5000000000000001   0.0781218233465463 0 0 0
 Ce   0.0000000000000000   0.5000000000000001   0.2343654700396383 0 0 0
 Ce   0.0000000000000001   0.4999999999999999   0.3906091167327304
 Ce   0.2500000000000001   0.7500000000000001   0.0000000000000001 0 0 0
 Ce   0.2500000000000001   0.7500000000000000   0.3124872933861844
 Ce   0.2500000000000001   0.7500000000000001   0.1562436466930923 0 0 0
 Ce   0.5000000000000000   0.5000000000000000   0.0781218233465463 0 0 0
 Ce   0.5000000000000002   0.5000000000000001   0.2343654700396384 0 0 0
 Ce   0.5000000000000002   0.5000000000000000   0.3906091167327304
 Ce   0.7500000000000002   0.7500000000000001   0.0000000000000001 0 0 0
 Ce   0.7500000000000002   0.7500000000000000   0.3124872933861844
 Ce   0.7500000000000002   0.7500000000000001   0.1562436466930923 0 0 0

K_POINTS automatic
1 1 1 1 1 1

CELL_PARAMETERS Bohr
   20.556138517348749     0.000000000000002    -0.000000000000004
    0.000000000000000    14.535384940627280     0.000000000000002
   -0.000000000000000    -0.000000000000000    46.515123169068765

